\ This file has been generated by DOcplex
\ ENCODING=ISO-8859-1
\Problem name: Brandom17742_6.lp

Minimize
 obj: - 58166 x0 - 29083 x1 - 56882 x2 - 28441 x3 - 57268 x4 - 28634 x5 + [
      38784 x0^2 + 38784 x0*x1 + 76960 x0*x2 + 38480 x0*x3 + 76848 x0*x4
      + 38424 x0*x5 + 9696 x1^2 + 38480 x1*x2 + 19240 x1*x3 + 38424 x1*x4
      + 19212 x1*x5 + 39552 x2^2 + 39552 x2*x3 + 76752 x2*x4 + 38376 x2*x5
      + 9888 x3^2 + 38376 x3*x4 + 19188 x3*x5 + 39120 x4^2 + 39120 x4*x5
      + 9780 x5^2 ]/2 + 43101
Subject To

Bounds
 0 <= x0 <= 1
 0 <= x1 <= 1
 0 <= x2 <= 1
 0 <= x3 <= 1
 0 <= x4 <= 1
 0 <= x5 <= 1

Binaries
 x0 x1 x2 x3 x4 x5
End
